5 5
4 14 2 36 1 97 0 23 3 66
4 85 2 2 3 91 1 73 0 65
0 75 3 67 1 52 2 62 4 23
0 26 2 68 3 82 4 55 1 6
0 35 1 22 4 43 3 15 2 86
-1
0 1 3 5
0 2 4 5
0 1 4 5
0 1 3 5
0 3 5
-2
15 208 285
93 380 490
112 304 438
27 178 256
157 253

396 7
10 15 20 3 9
2 21 12 8 19
1 6 16 13 24
11 7 23 17 4
0 5 22 14 18
